39
100
79	2
77	2
74	1
72	1
71	3
70	1
68	1
67	1
66	2
65	1
64	1
56	1
54	1
53	1
51	1
50	2
49	1
48	2
44	1
43	1
41	1
40	1
39	1
38	1
37	1
36	4
35	1
33	1
31	1
30	1
29	1
27	1
25	1
24	1
22	1
19	1
16	2
15	1
12	1
